100 500 583
11 12
9 11
10 12
10 12
12 12
9 9
9 11
8 12
10 8
8 13
10 10
12 13
10 13
12 13
11 10
9 12
8 12
13 11
11 8
11 10
9 10
9 11
11 8
8 8
12 13
12 11
10 11
8 9
10 9
10 10
8 9
12 11
12 8
10 12
13 10
9 12
9 12
8 11
8 9
11 13
10 8
13 8
11 13
13 13
9 8
11 8
10 12
13 13
9 9
10 8
8 12
8 9
8 8
8 11
11 9
9 12
13 13
11 12
13 13
12 9
12 13
10 12
8 12
11 9
10 13
10 11
10 9
11 12
10 11
8 12
12 10
11 12
13 12
9 9
12 9
10 12
13 13
11 11
9 10
13 9
13 12
11 9
13 8
11 8
10 13
9 12
12 9
8 10
12 11
13 8
8 10
13 8
12 13
12 11
8 11
9 10
8 13
13 8
9 13
13 12
